&control
	prefix	=	'Re6Se8Cl2'
	calculation	=	'bands'
	wf_collect	=	.false.
	outdir	=	'./out'
	wfcdir	=	'./wfc'
  pseudo_dir   =    './pseudo'	
	max_seconds	=	42000
/

&system
	ibrav	=	14
	celldm(1)	=	12.468413
	celldm(2)	=	1.006365565
	celldm(3)	=	1.338966353
  celldm(4)    =    0.2290644793
	celldm(5)	=	0.3370952584
  celldm(6)    =    0.0634872582
	nat	=	16
	ntyp	=	3
	ecutwfc	=	50
	ecutrho	=	200
	nbnd	=	260
	! occupations	=	'smearing'
	! smearing	=	'gaussian'
	! degauss	=	0.001
	lspinorb	=	.True.
	noncolin	=	.True.
/

&electrons
	diagonalization='cg'
	mixing_mode = 'plain'
	mixing_beta = 0.7
	electron_maxstep	=	100
	conv_thr	=	1e-06
/

ATOMIC_SPECIES
	Se   78.96  Se.rel-pbe-dn-kjpaw_psl.1.0.0.UPF
    Cl   35.453 Cl.rel-pbe-n-kjpaw_psl.1.0.0.UPF
    Re   186.207 Re.rel-pbe-spn-kjpaw_psl.1.0.0.UPF

ATOMIC_POSITIONS {angstrom}
Se      0.9832662828    4.3009863649    1.5592122665
Se      9.0143567172    4.1639266351    6.5525157335
Cl      2.5077453349    2.2885865293    3.9756169856
Cl      7.4898776651    6.1763264707    4.1361110144
Se      1.7537090282    0.8687108002    0.8925065745
Se      8.2439139718    7.5962021998    7.2192214255
Re      3.0634232334    2.8651772698    1.7696409569
Re      6.9341997666    5.5997357302    6.3420870431
Re      3.0289459833    5.0791626815    0.2939615152
Re      6.9686770167    3.3857513185    7.8177664848
Se      4.2568340669    4.9644097366    2.5050777593
Se      5.7407889331    3.5005042634    5.6066492407
Se      5.2121166140    1.5652459357    1.9190487180
Se      4.7855073860    6.8996680643    6.1926792820
Re      5.2401418271    3.6878209348    0.5561869056
Re      4.7574811729    4.7770930652    7.5555410944

K_POINTS {crystal_b}
7
0.000 0.000	0.000 10 !G 
0.000 0.000 0.500 10 !Z
0.000 0.500 0.500 10 !T
0.000 0.500 0.000 10 !R
0.500 0.500 0.500 10 !V
0.500 0.000 0.500 10 !X
0.000 0.000 0.000 10 !G
