&bands
    prefix = "Re6Se8Cl2"
    outdir = "./out"
    filband = "_dat/Re6Se8Cl2.bands.dat"
/
