&CONTROL
  calculation = 'relax'
  outdir = './out/'
  prefix = 'MoS2'
  pseudo_dir = './pseudo/'
/
&SYSTEM
  ecutrho =   4.0000000000d+02
  ecutwfc =  45.0
  ibrav = 4
  nat = 3
  ntyp = 2
  nbnd = 16
  a = 3.1600000
  c = 20.000000
  occupations = 'smearing'
  degauss = 0.005
/
&ELECTRONS
  conv_thr =   1.0000000000d-10
  mixing_beta = 0.01
/
&IONS
  ion_dynamics = 'bfgs'
/

ATOMIC_SPECIES
Mo     95.96 Mo.pbe-spn-kjpaw_psl.1.0.0.UPF
S      32.065 S.pbe-n-kjpaw_psl.1.0.0.UPF
ATOMIC_POSITIONS (crystal)
Mo           0.0000000000       0.0000000000       0.2500000000 
S            0.3333333300       0.6666666700       0.3620090000 
S            0.3333333400       0.6666666700       0.1379910000 

K_POINTS automatic
12 12 1 0 0 0

